(declare-fun y_7 () Real)
(declare-fun y_6 () Real)
(declare-fun y_5 () Real)
(declare-fun y_4 () Real)
(declare-fun y_3 () Real)
(declare-fun y_2 () Real)
(declare-fun y_1 () Real)
(declare-fun x () Real)
(assert (let ((a!1 (- (+ y_1 y_2 y_3 y_4 y_5 y_6 y_7) x)))
  (and (< a!1 0.0)
       (> a!1 (- 1.0))
       (or (= y_1 0.0) (= y_1 2.0))
       (or (= y_2 0.0) (= y_2 4.0))
       (or (= y_3 0.0) (= y_3 8.0))
       (or (= y_4 0.0) (= y_4 16.0))
       (or (= y_5 0.0) (= y_5 32.0))
       (or (= y_6 0.0) (= y_6 64.0))
       (or (= y_7 0.0) (= y_7 128.0)))))
